************************************************************************
file with basedata            : cm445_.bas
initial value random generator: 544751626
************************************************************************
projects                      :  1
jobs (incl. supersource/sink ):  18
horizon                       :  126
RESOURCES
  - renewable                 :  2   R
  - nonrenewable              :  2   N
  - doubly constrained        :  0   D
************************************************************************
PROJECT INFORMATION:
pronr.  #jobs rel.date duedate tardcost  MPM-Time
    1     16      0       19       14       19
************************************************************************
PRECEDENCE RELATIONS:
jobnr.    #modes  #successors   successors
   1        1          3           2   3   4
   2        4          3           6   8   9
   3        4          3           7  11  14
   4        4          3           5   9  11
   5        4          3           7   8  16
   6        4          3          11  12  17
   7        4          1          10
   8        4          2          10  12
   9        4          2          10  14
  10        4          2          13  15
  11        4          2          15  16
  12        4          1          14
  13        4          1          17
  14        4          1          15
  15        4          1          18
  16        4          1          18
  17        4          1          18
  18        1          0        
************************************************************************
REQUESTS/DURATIONS:
jobnr. mode duration  R 1  R 2  N 1  N 2
------------------------------------------------------------------------
  1      1     0       0    0    0    0
  2      1     3       5    9    7    8
         2     4       5    6    6    8
         3     7       4    6    4    7
         4     9       4    5    3    7
  3      1     5       5    8    8    5
         2     5       4    9    7    6
         3     7       3    8    4    5
         4     7       4    7    5    5
  4      1     2      10    8    2    6
         2     5       6    7    2    5
         3     5       7    7    2    4
         4     6       6    7    2    2
  5      1     4      10    9    8    7
         2     4      10    8    7   10
         3     5       9    6    5    4
         4     9       9    5    2    4
  6      1     1      10    9    4    4
         2     5       8    8    4    4
         3     6       7    6    4    4
         4    10       4    5    3    3
  7      1     1       6    4    6    7
         2     1       6    3    6    8
         3     4       5    3    6    4
         4     5       5    1    5    1
  8      1     2       5   10    2    6
         2     2       6    8    2    6
         3     7       3    8    2    3
         4    10       3    6    1    2
  9      1     1       6    5    4    8
         2     4       3    4    4    6
         3    10       2    4    3    1
         4    10       2    4    2    3
 10      1     6       6    6    4    4
         2     9       3    4    4    4
         3     9       5    4    4    3
         4     9       4    5    4    3
 11      1     2      10    7    7    6
         2     3       8    7    7    5
         3     4       7    6    6    4
         4     7       5    3    5    3
 12      1     1      10    2    8    9
         2     7       8    2    8    9
         3     8       8    1    4    9
         4    10       7    1    3    9
 13      1     4       8    8    7    9
         2     5       7    7    6    6
         3     7       7    6    5    5
         4     9       6    5    3    4
 14      1     1       8    9    8   10
         2     1       9    7    8   10
         3     3       8    5    6   10
         4     7       8    4    4    9
 15      1     1       6    6    4    7
         2     3       5    4    4    6
         3     4       5    1    3    6
         4     4       4    4    3    6
 16      1     2       4    7    4    5
         2     4       4    6    3    3
         3     6       3    6    3    1
         4     6       3    6    2    3
 17      1     1      10    3    9    6
         2     6       8    2    4    5
         3     8       7    2    2    5
         4     8       6    2    3    5
 18      1     0       0    0    0    0
************************************************************************
RESOURCEAVAILABILITIES:
  R 1  R 2  N 1  N 2
   15   13   70   89
************************************************************************
